
========================================
         Starting Pipeline for: SkipList3 (Mode: ContextualCVC5)
========================================
Initializing pipeline for benchmark: 'SkipList3'
   -> Loading and validating attributes from: /Dualis/scripts/../benchmarks/Classical/SkipList3/Attributes.txt
      -> Validation successful. Attribute file is consistent.
Total External Iterations: 0
Total Unique Test Cases Found: 0

==================== Iteration: 1 ====================
TIMEOUT : 20
   -> Parsing SYGUS file: /Dualis/scripts/../benchmarks/ContextualCVC5_working_temp/SkipList3/SkipList3.sy
   -> Starting CVC5 with a 1000-second timeout...
      -> Logging CVC5 output to iter_1.log
   -> CVC5 completed successfully.
   -> Writing new specs to harness: SkipList3_fuzz.cpp...
      -> Successfully created working copy '/Dualis/scripts/../benchmarks/ContextualCVC5_working_temp/SkipList3/SkipList3_fuzz.cpp'.
   -> Starting AFL++(SkipList3_fuzz) with a 20-second timeout...
   -> Building AFL-instrumented binary: /Dualis/scripts/../benchmarks/ContextualCVC5_working_temp/SkipList3/SkipList3_fuzz
   -> AFL++(SkipList3_fuzz) finished its fuzzing session.
   -> Checking fuzzing outputs for counterexamples...
Checking crashes
Checking queue
   -> Found 36 crash reports. Testing reproducibility...
Checking hangs
   -> Converting counterexamples for 'SkipList3'...
       -> Found and validated 2 new constraints.
   -> Updating CHC file with new counterexamples...

=============== Artifacts This Iteration ===============

--- Generated Specs ---
  insert: (max1 == v)
  lower_bound: (k == lb_ret1)
  inv1: (isPresent == isPresent)

--- New Test Cases Found ---

--- Updated SYGUS (for next iteration) ---
(set-logic LIA)

(synth-fun insert ((v Int) (isPresent Int) (min Int) (max Int) (len Int) (isPresent1 Int) (min1 Int) (max1 Int) (len1 Int)) Bool ((Start Bool) (Expr Int)) ((Start Bool ((<= Expr Expr) (>= Expr Expr) (= Expr Expr) (and Start Start) (or Start Start) (not Start))) (Expr Int ((+ Expr Expr) (- Expr Expr) v isPresent min max len isPresent1 min1 max1 len1))))
(synth-fun lower_bound ((k Int) (min Int) (max Int) (lb_ret1 Int)) Bool ((Start Bool) (Expr Int)) ((Start Bool ((<= Expr Expr) (>= Expr Expr) (= Expr Expr) (and Start Start) (or Start Start) (not Start))) (Expr Int ((+ Expr Expr) (- Expr Expr) k min max lb_ret1))))
(synth-fun inv1 ((i Int) (N Int) (isPresent Int) (min Int) (max Int) (len Int)) Bool ((Start Bool) (Expr Int)) ((Start Bool ((<= Expr Expr) (>= Expr Expr) (= Expr Expr) (and Start Start) (or Start Start) (not Start))) (Expr Int ((+ Expr Expr) (- Expr Expr) i N isPresent min max len))))

(declare-var N Int)
(declare-var i Int)
(declare-var i1 Int)
(declare-var min Int)
(declare-var min1 Int)
(declare-var max Int)
(declare-var max1 Int)
(declare-var isPresent Int)
(declare-var isPresent1 Int)
(declare-var len Int)
(declare-var len1 Int)
(declare-var v Int)
(declare-var k Int)
(declare-var lb_ret1 Int)

(define-fun is_valid ((x Int)) Bool (or (= x 1) (= x 0)))
(define-fun MAX () Int 128)
(define-fun MIN () Int -129)

(constraint (insert 1 0 0 0 1 1 0 1 2))
(constraint (lower_bound 0 0 0 0))

(constraint (=> (and (> N 0) (= min MAX) (= max MIN) (= len 0) (= isPresent 0) (= i 0)) (inv1 i N isPresent min max len)))
(constraint (=> (and (inv1 i N isPresent min max len) (is_valid isPresent) (< i N) (= v i) (insert v isPresent min max len isPresent1 min1 max1 len1) (= i1 (+ i 1))) (inv1 i1 N isPresent1 min1 max1 len1)))
(constraint (=> (and (inv1 i N isPresent min max len) (is_valid isPresent) (not (< i N)) (lower_bound min min max lb_ret1)) (>= lb_ret1 min)))

(check-synth)
==============================================================
   -> Checking if specs have changed...
      -> SYGUS files are different. Continuing iteration.

==================== Iteration: 2 ====================
TIMEOUT : 40
   -> Parsing SYGUS file: /Dualis/scripts/../benchmarks/ContextualCVC5_working_temp/SkipList3/SkipList3.sy
   -> Starting CVC5 with a 1000-second timeout...
      -> Logging CVC5 output to iter_2.log
   -> CVC5 completed successfully.
   -> Writing new specs to harness: SkipList3_fuzz.cpp...
      -> Successfully created working copy '/Dualis/scripts/../benchmarks/ContextualCVC5_working_temp/SkipList3/SkipList3_fuzz.cpp'.
   -> Starting AFL++(SkipList3_fuzz) with a 40-second timeout...
   -> Building AFL-instrumented binary: /Dualis/scripts/../benchmarks/ContextualCVC5_working_temp/SkipList3/SkipList3_fuzz
   -> AFL++(SkipList3_fuzz) finished its fuzzing session.
   -> Checking fuzzing outputs for counterexamples...
Checking crashes
Checking queue
   -> Found 35 crash reports. Testing reproducibility...
Checking hangs
   -> Converting counterexamples for 'SkipList3'...
       -> Found and validated 2 new constraints.
   -> Updating CHC file with new counterexamples...

=============== Artifacts This Iteration ===============

--- Generated Specs ---
  insert: (isPresent == min1)
  lower_bound: (k == lb_ret1)
  inv1: (N == N)

--- New Test Cases Found ---

--- Updated SYGUS (for next iteration) ---
(set-logic LIA)

(synth-fun insert ((v Int) (isPresent Int) (min Int) (max Int) (len Int) (isPresent1 Int) (min1 Int) (max1 Int) (len1 Int)) Bool ((Start Bool) (Expr Int)) ((Start Bool ((<= Expr Expr) (>= Expr Expr) (= Expr Expr) (and Start Start) (or Start Start) (not Start))) (Expr Int ((+ Expr Expr) (- Expr Expr) v isPresent min max len isPresent1 min1 max1 len1))))
(synth-fun lower_bound ((k Int) (min Int) (max Int) (lb_ret1 Int)) Bool ((Start Bool) (Expr Int)) ((Start Bool ((<= Expr Expr) (>= Expr Expr) (= Expr Expr) (and Start Start) (or Start Start) (not Start))) (Expr Int ((+ Expr Expr) (- Expr Expr) k min max lb_ret1))))
(synth-fun inv1 ((i Int) (N Int) (isPresent Int) (min Int) (max Int) (len Int)) Bool ((Start Bool) (Expr Int)) ((Start Bool ((<= Expr Expr) (>= Expr Expr) (= Expr Expr) (and Start Start) (or Start Start) (not Start))) (Expr Int ((+ Expr Expr) (- Expr Expr) i N isPresent min max len))))

(declare-var N Int)
(declare-var i Int)
(declare-var i1 Int)
(declare-var min Int)
(declare-var min1 Int)
(declare-var max Int)
(declare-var max1 Int)
(declare-var isPresent Int)
(declare-var isPresent1 Int)
(declare-var len Int)
(declare-var len1 Int)
(declare-var v Int)
(declare-var k Int)
(declare-var lb_ret1 Int)

(define-fun is_valid ((x Int)) Bool (or (= x 1) (= x 0)))
(define-fun MAX () Int 128)
(define-fun MIN () Int -129)


(constraint (insert 1 0 0 0 1 1 0 1 2))
(constraint (lower_bound 0 0 0 0))
(constraint (=> (and (> N 0) (= min MAX) (= max MIN) (= len 0) (= isPresent 0) (= i 0)) (inv1 i N isPresent min max len)))
(constraint (=> (and (inv1 i N isPresent min max len) (is_valid isPresent) (< i N) (= v i) (insert v isPresent min max len isPresent1 min1 max1 len1) (= i1 (+ i 1))) (inv1 i1 N isPresent1 min1 max1 len1)))
(constraint (=> (and (inv1 i N isPresent min max len) (is_valid isPresent) (not (< i N)) (lower_bound min min max lb_ret1)) (>= lb_ret1 min)))

(check-synth)
==============================================================
   -> Checking if specs have changed...
      -> SYGUS files are different. Continuing iteration.

==================== Iteration: 3 ====================
TIMEOUT : 60
   -> Parsing SYGUS file: /Dualis/scripts/../benchmarks/ContextualCVC5_working_temp/SkipList3/SkipList3.sy
   -> Starting CVC5 with a 1000-second timeout...
      -> Logging CVC5 output to iter_3.log
   -> CVC5 completed successfully.
   -> Writing new specs to harness: SkipList3_fuzz.cpp...
      -> Successfully created working copy '/Dualis/scripts/../benchmarks/ContextualCVC5_working_temp/SkipList3/SkipList3_fuzz.cpp'.
   -> Starting AFL++(SkipList3_fuzz) with a 60-second timeout...
   -> Building AFL-instrumented binary: /Dualis/scripts/../benchmarks/ContextualCVC5_working_temp/SkipList3/SkipList3_fuzz
   -> AFL++(SkipList3_fuzz) finished its fuzzing session.
   -> Checking fuzzing outputs for counterexamples...
Checking crashes
Checking queue
   -> Found 37 crash reports. Testing reproducibility...
Checking hangs
   -> Converting counterexamples for 'SkipList3'...
       -> Found and validated 2 new constraints.
   -> Updating CHC file with new counterexamples...

=============== Artifacts This Iteration ===============

--- Generated Specs ---
  insert: (isPresent == min1)
  lower_bound: (k == lb_ret1)
  inv1: (N == N)

--- New Test Cases Found ---

--- Updated SYGUS (for next iteration) ---
(set-logic LIA)

(synth-fun insert ((v Int) (isPresent Int) (min Int) (max Int) (len Int) (isPresent1 Int) (min1 Int) (max1 Int) (len1 Int)) Bool ((Start Bool) (Expr Int)) ((Start Bool ((<= Expr Expr) (>= Expr Expr) (= Expr Expr) (and Start Start) (or Start Start) (not Start))) (Expr Int ((+ Expr Expr) (- Expr Expr) v isPresent min max len isPresent1 min1 max1 len1))))
(synth-fun lower_bound ((k Int) (min Int) (max Int) (lb_ret1 Int)) Bool ((Start Bool) (Expr Int)) ((Start Bool ((<= Expr Expr) (>= Expr Expr) (= Expr Expr) (and Start Start) (or Start Start) (not Start))) (Expr Int ((+ Expr Expr) (- Expr Expr) k min max lb_ret1))))
(synth-fun inv1 ((i Int) (N Int) (isPresent Int) (min Int) (max Int) (len Int)) Bool ((Start Bool) (Expr Int)) ((Start Bool ((<= Expr Expr) (>= Expr Expr) (= Expr Expr) (and Start Start) (or Start Start) (not Start))) (Expr Int ((+ Expr Expr) (- Expr Expr) i N isPresent min max len))))

(declare-var N Int)
(declare-var i Int)
(declare-var i1 Int)
(declare-var min Int)
(declare-var min1 Int)
(declare-var max Int)
(declare-var max1 Int)
(declare-var isPresent Int)
(declare-var isPresent1 Int)
(declare-var len Int)
(declare-var len1 Int)
(declare-var v Int)
(declare-var k Int)
(declare-var lb_ret1 Int)

(define-fun is_valid ((x Int)) Bool (or (= x 1) (= x 0)))
(define-fun MAX () Int 128)
(define-fun MIN () Int -129)


(constraint (insert 1 0 0 0 1 1 0 1 2))
(constraint (lower_bound 0 0 0 0))
(constraint (=> (and (> N 0) (= min MAX) (= max MIN) (= len 0) (= isPresent 0) (= i 0)) (inv1 i N isPresent min max len)))
(constraint (=> (and (inv1 i N isPresent min max len) (is_valid isPresent) (< i N) (= v i) (insert v isPresent min max len isPresent1 min1 max1 len1) (= i1 (+ i 1))) (inv1 i1 N isPresent1 min1 max1 len1)))
(constraint (=> (and (inv1 i N isPresent min max len) (is_valid isPresent) (not (< i N)) (lower_bound min min max lb_ret1)) (>= lb_ret1 min)))

(check-synth)
==============================================================
   -> Checking if specs have changed...
      -> SYGUS files are identical. Pipeline has converged.
   -> 15-minute deep fuzzing converged. Pipeline complete.

==================== Finalizing Pipeline ====================

====================== Pipeline Finished =====================
Total External Iterations: 3
Total Unique Test Cases Found: 6
pipeline.run() took 0.0492 seconds.
Running command: /usr/bin/python3 chcverifynfuzz.py ContextualCVC5 SkipList3
PID: 33
========================================


Total Pipeline Duration: 124.89s
